COLUMNS

passenger_count
pickup_ID
dropoff_ID
request_time_sec
pickup_district
dropoff_district
LDuals
IDuals
vehicle_ID
pick_position
drop_position

REQUESTS_INFO
2      885       748       32340     290       290       154       154       8         1         2         
1      325       231       32340     299       266       160       160       26        1         3         
1      836       390       32356     290       52        122       122       61        1         5         
2      812       696       32368     290       189       130       130       61        2         3         
3      922       993       32364     50        84        176       176       113       1         2         
1      208       212       32355     286       266       106       106       209       1         2         
1      419       108       32347     168       178       163       163       229       1         3         
3      395       441       32349     100       168       142       142       231       1         2         
1      154       230       32341     286       266       136       136       233       1         3         
3      231       211       32351     266       266       134       134       277       1         2         
1      841       925       32251     290       290       248       248       306       1         3         
3      814       393       32353     290       52        152       152       434       1         3         
1      875       698       32328     291       189       171       171       467       1         2         
4      325       407       32345     299       299       155       155       525       1         2         
1      349       436       32359     127       100       129       129       537       1         2         
1      523       228       32337     52        266       168       168       555       1         3         
3      306       351       32327     299       52        157       157       652       1         2         
1      863       760       32357     290       291       167       167       658       1         3         
1      756       813       32362     131       290       122       122       757       1         2         
3      632       48        32353     189       98        98        98        771       1         2         
3      817       971       32356     290       290       140       140       774       1         2         
1      253       651       32368     206       189       102       102       779       1         4         
2      905       575       32352     290       189       151       151       780       1         3         
3      841       702       32319     290       290       206       206       797       1         2         
1      463       247       32348     168       266       103       103       816       1         4         
1      937       1022      32336     291       291       139       139       824       1         2         
1      307       212       32311     127       266       215       215       849       1         4         
1      771       670       32369     290       280       95        95        856       1         2         
1      549       779       32299     52        131       212       212       896       1         2         
3      841       702       32319     290       290       206       206       953       1         2         
1      963       915       32346     50        291       134       134       955       1         2         
2      847       693       32340     291       280       150       150       1006      1         2         
2      500       248       32361     52        266       124       124       1039      1         3         
1      135       544       32365     286       52        102       102       1061      1         2         
3      928       1529      32367     290       296       147       147       1062      1         2         
2      928       1529      32367     290       296       147       147       1079      1         3         
1      817       673       32340     290       189       146       146       1235      1         3         
1      325       365       32354     299       299       146       146       1248      1         2         
3      922       993       32364     50        84        176       176       1276      1         2         
1      325       429       32349     299       999       151       151       1716      1         2         
1      258       522       32344     87        52        167       167       1831      1         4         
1      925       841       32368     290       290       144       144       1836      1         2         
1      545       116       32328     52        9         192       192       1932      1         2         
3      410       603       32365     52        189       142       142       1949      1         2         
1      598       698       32370     189       189       0         0         0         0         0         
1      352       604       32370     119       189       0         0         0         0         0         
1      945       1044      32370     50        291       0         0         0         0         0         
1      32        526       32370     98        52        0         0         0         0         0         
1      1087      1227      32370     291       192       0         0         0         0         0         
3      630       418       32370     189       168       0         0         0         0         0         
2      630       418       32370     189       168       0         0         0         0         0         
1      325       710       32371     299       131       0         0         0         0         0         
3      285       116       32371     299       9         0         0         0         0         0         
2      285       116       32371     299       9         0         0         0         0         0         
1      532       252       32371     199       206       0         0         0         0         0         
1      350       134       32371     127       9         0         0         0         0         0         
1      578       415       32371     189       100       0         0         0         0         0         
1      735       134       32371     131       9         0         0         0         0         0         
1      663       31        32372     131       9         0         0         0         0         0         
1      924       511       32372     290       199       0         0         0         0         0         
3      883       1053      32372     290       84        0         0         0         0         0         
3      99        46        32372     286       98        0         0         0         0         0         
3      883       1053      32372     290       84        0         0         0         0         0         
2      99        46        32372     286       98        0         0         0         0         0         
1      842       925       32373     290       290       0         0         0         0         0         
2      100       190       32373     57        286       0         0         0         0         0         
1      678       771       32374     290       290       0         0         0         0         0         
1      720       736       32374     290       131       0         0         0         0         0         
1      523       597       32374     52        131       0         0         0         0         0         
1      644       696       32374     131       189       0         0         0         0         0         
1      533       439       32374     199       189       0         0         0         0         0         
1      199       431       32374     178       52        0         0         0         0         0         
2      698       738       32374     189       189       0         0         0         0         0         
1      328       293       32375     299       87        0         0         0         0         0         
1      735       620       32375     131       131       0         0         0         0         0         
2      850       737       32376     291       189       0         0         0         0         0         
1      579       671       32376     189       280       0         0         0         0         0         
3      628       62        32376     189       98        0         0         0         0         0         
1      701       558       32376     290       189       0         0         0         0         0         
1      134       570       32377     9         52        0         0         0         0         0         
1      464       371       32377     168       52        0         0         0         0         0         
1      504       62        32377     52        98        0         0         0         0         0         
1      364       10        32377     299       98        0         0         0         0         0         
1      497       152       32377     999       9         0         0         0         0         0         
1      1044      873       32377     291       291       0         0         0         0         0         
1      972       886       32377     290       290       0         0         0         0         0         
2      43        571       32377     9         52        0         0         0         0         0         
1      621       627       32378     280       189       0         0         0         0         0         
2      780       1208      32378     291       192       0         0         0         0         0         
1      690       31        32379     131       9         0         0         0         0         0         
1      500       372       32379     52        119       0         0         0         0         0         
1      824       1000      32379     291       291       0         0         0         0         0         
1      349       718       32380     127       189       0         0         0         0         0         
1      134       35        32380     9         98        0         0         0         0         0         
1      549       573       32380     52        189       0         0         0         0         0         
3      791       720       32380     290       290       0         0         0         0         0         
3      791       720       32380     290       290       0         0         0         0         0         
3      734       827       32380     131       291       0         0         0         0         0         
1      504       408       32380     52        299       0         0         0         0         0         
2      734       827       32380     131       291       0         0         0         0         0         
1      810       675       32380     290       189       0         0         0         0         0         
1      485       417       32381     189       100       0         0         0         0         0         
3      443       32        32381     168       98        0         0         0         0         0         
1      488       629       32381     199       189       0         0         0         0         0         
1      603       795       32381     189       290       0         0         0         0         0         
2      413       624       32381     52        189       0         0         0         0         0         
1      46        443       32381     98        168       0         0         0         0         0         
1      78        575       32382     9         189       0         0         0         0         0         
3      1027      896       32382     50        291       0         0         0         0         0         
2      479       389       32382     52        299       0         0         0         0         0         
3      354       394       32382     119       100       0         0         0         0         0         
1      528       452       32382     52        52        0         0         0         0         0         
3      1211      1025      32382     129       291       0         0         0         0         0         
1      781       627       32382     291       189       0         0         0         0         0         
3      1211      1025      32382     129       291       0         0         0         0         0         
3      487       353       32383     199       119       0         0         0         0         0         
2      487       353       32383     199       119       0         0         0         0         0         
3      594       577       32383     131       189       0         0         0         0         0         
2      594       577       32383     131       189       0         0         0         0         0         
1      717       622       32383     189       280       0         0         0         0         0         
1      735       502       32383     131       52        0         0         0         0         0         
1      816       1022      32383     290       291       0         0         0         0         0         
1      556       480       32383     199       52        0         0         0         0         0         
1      735       720       32384     131       290       0         0         0         0         0         
1      992       1391      32384     290       129       0         0         0         0         0         
1      924       970       32384     290       290       0         0         0         0         0         
2      646       79        32384     280       98        0         0         0         0         0         
1      980       968       32384     291       290       0         0         0         0         0         
1      327       139       32384     299       57        0         0         0         0         0         
1      1090      1003      32384     291       291       0         0         0         0         0         
2      745       602       32384     290       189       0         0         0         0         0         
3      745       602       32384     290       189       0         0         0         0         0         
1      760       779       32384     291       131       0         0         0         0         0         
1      782       936       32385     291       291       0         0         0         0         0         
1      760       720       32385     291       290       0         0         0         0         0         
1      548       502       32385     52        52        0         0         0         0         0         
1      256       505       32386     87        52        0         0         0         0         0         
1      1090      1066      32386     291       291       0         0         0         0         0         
1      771       332       32387     290       87        0         0         0         0         0         
1      626       439       32387     189       189       0         0         0         0         0         
1      597       648       32387     131       189       0         0         0         0         0         
1      946       693       32387     290       280       0         0         0         0         0         
1      906       1015      32388     290       84        0         0         0         0         0         
1      578       409       32388     189       52        0         0         0         0         0         
1      664       116       32388     131       9         0         0         0         0         0         
1      549       598       32389     52        189       0         0         0         0         0         
1      503       420       32389     52        168       0         0         0         0         0         
1      621       675       32389     280       189       0         0         0         0         0         
1      884       134       32389     290       9         0         0         0         0         0         
1      397       78        32389     168       9         0         0         0         0         0         
3      1024      1088      32390     291       291       0         0         0         0         0         
3      1024      1088      32390     291       291       0         0         0         0         0         
3      268       234       32390     299       87        0         0         0         0         0         
1      336       410       32390     277       52        0         0         0         0         0         
1      702       535       32390     290       189       0         0         0         0         0         
2      268       234       32390     299       87        0         0         0         0         0         
1      598       676       32390     189       189       0         0         0         0         0         
1      842       372       32391     290       119       0         0         0         0         0         
1      695       674       32391     189       189       0         0         0         0         0         
2      805       646       32392     291       280       0         0         0         0         0         
1      217       116       32392     87        9         0         0         0         0         0         
1      484       481       32392     189       189       0         0         0         0         0         
1      837       924       32393     290       290       0         0         0         0         0         
1      308       247       32393     127       266       0         0         0         0         0         
1      463       651       32393     168       189       0         0         0         0         0         
1      1090      647       32393     291       280       0         0         0         0         0         
1      1066      1227      32393     291       192       0         0         0         0         0         
1      924       1032      32394     290       84        0         0         0         0         0         
1      455       548       32394     52        52        0         0         0         0         0         
1      670       884       32394     280       290       0         0         0         0         0         
1      556       512       32394     199       199       0         0         0         0         0         
3      504       375       32394     52        119       0         0         0         0         0         
1      328       520       32395     299       52        0         0         0         0         0         
1      598       720       32395     189       290       0         0         0         0         0         
1      485       852       32395     189       291       0         0         0         0         0         
1      276       559       32396     87        189       0         0         0         0         0         
1      463       718       32396     168       189       0         0         0         0         0         
1      924       622       32396     290       280       0         0         0         0         0         
1      252       511       32396     206       199       0         0         0         0         0         
1      526       513       32396     52        199       0         0         0         0         0         
1      837       1127      32396     290       291       0         0         0         0         0         
1      905       699       32396     290       290       0         0         0         0         0         
1      310       461       32397     127       189       0         0         0         0         0         
1      84        98        32397     287       98        0         0         0         0         0         
1      330       463       32397     127       168       0         0         0         0         0         
1      60        78        32397     9         9         0         0         0         0         0         
3      527       790       32398     52        290       0         0         0         0         0         
1      454       389       32398     52        299       0         0         0         0         0         
1      725       462       32399     290       189       0         0         0         0         0         
1      597       555       32399     131       199       0         0         0         0         0         
1      466       576       32399     199       189       0         0         0         0         0         
1      1066      1090      32399     291       291       0         0         0         0         0         
1      679       794       32399     290       290       0         0         0         0         0         
1      743       601       32399     290       189       0         0         0         0         0         
1      1003      896       32399     291       291       0         0         0         0         0         
